1610348400
1610383500
1610551800
1610521200
1610607600
1610638620
1610694000
1610731800
1610951400
1610984700
1611039600
1611070200
1611126000
1611156600
1611160200
1611167400
1611212400
1611244800
1611248400
1611252000
1611298800
1611329400
1611644400
1611676800
1611730800
1611762660
1611558000
1611588600
1611772200
1611776700
1611817200
1611847800
1611903600
1611934200
1610434800
1610465400
